min: c;

c = 4.11163093110198 * u4_t1_h1 + 3.71247842903832 * u4_t1_h2 + 3.12002327232202 * u4_t1_h3 + 2.69103689835164 * u4_t1_h4 + 2.69103689835164 * u4_t10_h4 + 3.72469211324209 * u4_t1_h5 + 3.72469211324209 * u4_t10_h5 + 4.23606096953185 * u4_t1_h6 + 4.23606096953185 * u4_t10_h6 + 3.76982597637102 * u4_t1_h7 + 3.76982597637102 * u4_t10_h7 + 5.72082718782553 * u4_t1_h8 + 5.72082718782553 * u4_t9_h8 + 5.72082718782553 * u4_t10_h8 + 4.83248594335076 * u4_t9_h9 + 4.83248594335076 * u4_t10_h9 + 5.35494984143703 * u4_t9_h10 + 5.35494984143703 * u4_t10_h10 + 3.92629797017084 * u4_t2_h11 + 3.92629797017084 * u4_t4_h11 + 3.92629797017084 * u4_t9_h11 + 3.92629797017084 * u4_t10_h11 + 6.44199481544875 * u4_t2_h12 + 6.44199481544875 * u4_t3_h12 + 6.44199481544875 * u4_t4_h12 + 6.44199481544875 * u4_t8_h12 + 6.44199481544875 * u4_t9_h12 + 6.44199481544875 * u4_t10_h12 + 4.44192254105988 * u4_t2_h13 + 4.44192254105988 * u4_t3_h13 + 4.44192254105988 * u4_t4_h13 + 4.44192254105988 * u4_t8_h13 + 4.44192254105988 * u4_t9_h13 + 5.44557549553553 * u4_t2_h14 + 5.44557549553553 * u4_t3_h14 + 5.44557549553553 * u4_t4_h14 + 5.44557549553553 * u4_t8_h14 + 5.44557549553553 * u4_t9_h14 + 6.47286052388004 * u4_t2_h15 + 6.47286052388004 * u4_t3_h15 + 6.47286052388004 * u4_t4_h15 + 6.47286052388004 * u4_t8_h15 + 6.47286052388004 * u4_t9_h15 + 5.6332372171812 * u4_t2_h16 + 5.6332372171812 * u4_t3_h16 + 5.6332372171812 * u4_t4_h16 + 5.6332372171812 * u4_t5_h16 + 5.6332372171812 * u4_t8_h16 + 5.6332372171812 * u4_t9_h16 + 5.97985647029479 * u4_t2_h17 + 5.97985647029479 * u4_t3_h17 + 5.97985647029479 * u4_t5_h17 + 5.97985647029479 * u4_t8_h17 + 5.97985647029479 * u4_t9_h17 + 6.34532814732582 * u4_t2_h18 + 6.34532814732582 * u4_t3_h18 + 6.34532814732582 * u4_t5_h18 + 6.34532814732582 * u4_t8_h18 + 6.34532814732582 * u4_t9_h18 + 5.9159206178663 * u4_t2_h19 + 5.9159206178663 * u4_t3_h19 + 5.9159206178663 * u4_t6_h19 + 5.9159206178663 * u4_t8_h19 + 5.9159206178663 * u4_t9_h19 + 5.15122645527786 * u4_t2_h20 + 5.15122645527786 * u4_t6_h20 + 5.15122645527786 * u4_t9_h20 + 5.57408596736754 * u4_t6_h21 + 5.86035034431304 * u4_t6_h22 + 5.86035034431304 * u4_t7_h22 + 5.51694859503733 * u4_t6_h23 + 5.51694859503733 * u4_t7_h23;
0 <= u4_t1_h1 <= 1;
0 <= u4_t1_h2 <= 1;
0 <= u4_t1_h3 <= 1;
0 <= u4_t1_h4 <= 1;
0 <= u4_t1_h5 <= 1;
0 <= u4_t1_h6 <= 1;
0 <= u4_t1_h7 <= 1;
0 <= u4_t1_h8 <= 1;
u4_t1_h1 + u4_t1_h2 + u4_t1_h3 + u4_t1_h4 + u4_t1_h5 + u4_t1_h6 + u4_t1_h7 + u4_t1_h8 = 1;
0 <= u4_t2_h11 <= 1;
0 <= u4_t2_h12 <= 1;
0 <= u4_t2_h13 <= 1;
0 <= u4_t2_h14 <= 1;
0 <= u4_t2_h15 <= 1;
0 <= u4_t2_h16 <= 1;
0 <= u4_t2_h17 <= 1;
0 <= u4_t2_h18 <= 1;
0 <= u4_t2_h19 <= 1;
0 <= u4_t2_h20 <= 1;
u4_t2_h11 + u4_t2_h12 + u4_t2_h13 + u4_t2_h14 + u4_t2_h15 + u4_t2_h16 + u4_t2_h17 + u4_t2_h18 + u4_t2_h19 + u4_t2_h20 = 2;
0 <= u4_t3_h12 <= 1;
0 <= u4_t3_h13 <= 1;
0 <= u4_t3_h14 <= 1;
0 <= u4_t3_h15 <= 1;
0 <= u4_t3_h16 <= 1;
0 <= u4_t3_h17 <= 1;
0 <= u4_t3_h18 <= 1;
0 <= u4_t3_h19 <= 1;
u4_t3_h12 + u4_t3_h13 + u4_t3_h14 + u4_t3_h15 + u4_t3_h16 + u4_t3_h17 + u4_t3_h18 + u4_t3_h19 = 3;
0 <= u4_t4_h11 <= 1;
0 <= u4_t4_h12 <= 1;
0 <= u4_t4_h13 <= 1;
0 <= u4_t4_h14 <= 1;
0 <= u4_t4_h15 <= 1;
0 <= u4_t4_h16 <= 1;
u4_t4_h11 + u4_t4_h12 + u4_t4_h13 + u4_t4_h14 + u4_t4_h15 + u4_t4_h16 = 3;
0 <= u4_t5_h16 <= 1;
0 <= u4_t5_h17 <= 1;
0 <= u4_t5_h18 <= 1;
u4_t5_h16 + u4_t5_h17 + u4_t5_h18 = 1;
0 <= u4_t6_h19 <= 1;
0 <= u4_t6_h20 <= 1;
0 <= u4_t6_h21 <= 1;
0 <= u4_t6_h22 <= 1;
0 <= u4_t6_h23 <= 1;
u4_t6_h19 + u4_t6_h20 + u4_t6_h21 + u4_t6_h22 + u4_t6_h23 = 3;
0 <= u4_t7_h22 <= 1;
0 <= u4_t7_h23 <= 1;
u4_t7_h22 + u4_t7_h23 = 1;
0 <= u4_t8_h12 <= 1;
0 <= u4_t8_h13 <= 1;
0 <= u4_t8_h14 <= 1;
0 <= u4_t8_h15 <= 1;
0 <= u4_t8_h16 <= 1;
0 <= u4_t8_h17 <= 1;
0 <= u4_t8_h18 <= 1;
0 <= u4_t8_h19 <= 1;
u4_t8_h12 + u4_t8_h13 + u4_t8_h14 + u4_t8_h15 + u4_t8_h16 + u4_t8_h17 + u4_t8_h18 + u4_t8_h19 = 2;
0 <= u4_t9_h8 <= 1;
0 <= u4_t9_h9 <= 1;
0 <= u4_t9_h10 <= 1;
0 <= u4_t9_h11 <= 1;
0 <= u4_t9_h12 <= 1;
0 <= u4_t9_h13 <= 1;
0 <= u4_t9_h14 <= 1;
0 <= u4_t9_h15 <= 1;
0 <= u4_t9_h16 <= 1;
0 <= u4_t9_h17 <= 1;
0 <= u4_t9_h18 <= 1;
0 <= u4_t9_h19 <= 1;
0 <= u4_t9_h20 <= 1;
u4_t9_h8 + u4_t9_h9 + u4_t9_h10 + u4_t9_h11 + u4_t9_h12 + u4_t9_h13 + u4_t9_h14 + u4_t9_h15 + u4_t9_h16 + u4_t9_h17 + u4_t9_h18 + u4_t9_h19 + u4_t9_h20 = 2;
0 <= u4_t10_h4 <= 1;
0 <= u4_t10_h5 <= 1;
0 <= u4_t10_h6 <= 1;
0 <= u4_t10_h7 <= 1;
0 <= u4_t10_h8 <= 1;
0 <= u4_t10_h9 <= 1;
0 <= u4_t10_h10 <= 1;
0 <= u4_t10_h11 <= 1;
0 <= u4_t10_h12 <= 1;
u4_t10_h4 + u4_t10_h5 + u4_t10_h6 + u4_t10_h7 + u4_t10_h8 + u4_t10_h9 + u4_t10_h10 + u4_t10_h11 + u4_t10_h12 = 2;
